k-points along high symmetry lines
 40  ! 40 intersections 
Line-mode
rec
  0   0   0 ! gamma
  1 0.5 0.5 ! X
  0 0.5 0.5 ! X
  0   0   0 ! gamma 
  0   0   0 ! gamma
0.5 0.5 0.5 ! L 
