      npar = 4
    istart = 0
    icharg = 2
      prec = Accurate
      algo = Fast
      nelm = 99
      bmix = 1.0
    nelmdl = -5
     ediff = 1E-6
    ibrion = 2
      isif = 3
       nsw = 0
    ediffg = 1E-6
     potim = 0.20
       gga = AM
     encut = 600
    nbands = 50
    ismear = -5
    lorbit = 11 
     nedos = 5000
     lwave = .FALSE.
    lcharg = .FALSE.
     lvtot = .FALSE.
