VN
4.070480
0.000000 0.500000 0.500000
0.500000 -0.000000 0.500000
0.500000 0.500000 -0.000000
V N 
1 1 
Direct
0.000000 0.000000 0.000000
0.500000 0.500000 0.500000
