k-point high symmetry path
 40 
line
rec
  0.0000    0.0000    0.0000 ! G
  0.0000    0.5000    0.5000 ! X1
  
  1.0000    0.5000    0.5000 ! X2   
  0.7500    0.3750    0.3750 ! K
  
  0.7500    0.3750    0.3750 ! K    
  0.0000    0.0000    0.0000 ! G
  
  0.0000    0.0000    0.0000 ! G    
  0.5000    0.5000    0.5000 ! L