 N Ti
    16.88
           1           0           0
           0           1           0
           0           0           1
 N Ti
         256         256
Direct
   0.0000000000000000        0.0000000000000000        0.0000000000000000     
  0.25000000000000000        0.0000000000000000        0.0000000000000000     
  0.50000000000000000        0.0000000000000000        0.0000000000000000     
  0.75000000000000000        0.0000000000000000        0.0000000000000000     
  0.12500000000000000       0.12500000000000000        0.0000000000000000     
  0.37500000000000000       0.12500000000000000        0.0000000000000000     
  0.62500000000000000       0.12500000000000000        0.0000000000000000     
  0.87500000000000000       0.12500000000000000        0.0000000000000000     
   0.0000000000000000       0.25000000000000000        0.0000000000000000     
  0.25000000000000000       0.25000000000000000        0.0000000000000000     
  0.50000000000000000       0.25000000000000000        0.0000000000000000     
  0.75000000000000000       0.25000000000000000        0.0000000000000000     
  0.12500000000000000       0.37500000000000000        0.0000000000000000     
  0.37500000000000000       0.37500000000000000        0.0000000000000000     
  0.62500000000000000       0.37500000000000000        0.0000000000000000     
  0.87500000000000000       0.37500000000000000        0.0000000000000000     
   0.0000000000000000       0.50000000000000000        0.0000000000000000     
  0.25000000000000000       0.50000000000000000        0.0000000000000000     
  0.50000000000000000       0.50000000000000000        0.0000000000000000     
  0.75000000000000000       0.50000000000000000        0.0000000000000000     
  0.12500000000000000       0.62500000000000000        0.0000000000000000     
  0.37500000000000000       0.62500000000000000        0.0000000000000000     
  0.62500000000000000       0.62500000000000000        0.0000000000000000     
  0.87500000000000000       0.62500000000000000        0.0000000000000000     
   0.0000000000000000       0.75000000000000000        0.0000000000000000     
  0.25000000000000000       0.75000000000000000        0.0000000000000000     
  0.50000000000000000       0.75000000000000000        0.0000000000000000     
  0.75000000000000000       0.75000000000000000        0.0000000000000000     
  0.12500000000000000       0.87500000000000000        0.0000000000000000     
  0.37500000000000000       0.87500000000000000        0.0000000000000000     
  0.62500000000000000       0.87500000000000000        0.0000000000000000     
  0.87500000000000000       0.87500000000000000        0.0000000000000000     
  0.12500000000000000        0.0000000000000000       0.12500000000000000     
  0.37500000000000000        0.0000000000000000       0.12500000000000000     
  0.62500000000000000        0.0000000000000000       0.12500000000000000     
  0.87500000000000000        0.0000000000000000       0.12500000000000000     
   0.0000000000000000       0.12500000000000000       0.12500000000000000     
  0.25000000000000000       0.12500000000000000       0.12500000000000000     
  0.50000000000000000       0.12500000000000000       0.12500000000000000     
  0.75000000000000000       0.12500000000000000       0.12500000000000000     
  0.12500000000000000       0.25000000000000000       0.12500000000000000     
  0.37500000000000000       0.25000000000000000       0.12500000000000000     
  0.62500000000000000       0.25000000000000000       0.12500000000000000     
  0.87500000000000000       0.25000000000000000       0.12500000000000000     
   0.0000000000000000       0.37500000000000000       0.12500000000000000     
  0.25000000000000000       0.37500000000000000       0.12500000000000000     
  0.50000000000000000       0.37500000000000000       0.12500000000000000     
  0.75000000000000000       0.37500000000000000       0.12500000000000000     
  0.12500000000000000       0.50000000000000000       0.12500000000000000     
  0.37500000000000000       0.50000000000000000       0.12500000000000000     
  0.62500000000000000       0.50000000000000000       0.12500000000000000     
  0.87500000000000000       0.50000000000000000       0.12500000000000000     
   0.0000000000000000       0.62500000000000000       0.12500000000000000     
  0.25000000000000000       0.62500000000000000       0.12500000000000000     
  0.50000000000000000       0.62500000000000000       0.12500000000000000     
  0.75000000000000000       0.62500000000000000       0.12500000000000000     
  0.12500000000000000       0.75000000000000000       0.12500000000000000     
  0.37500000000000000       0.75000000000000000       0.12500000000000000     
  0.62500000000000000       0.75000000000000000       0.12500000000000000     
  0.87500000000000000       0.75000000000000000       0.12500000000000000     
   0.0000000000000000       0.87500000000000000       0.12500000000000000     
  0.25000000000000000       0.87500000000000000       0.12500000000000000     
  0.50000000000000000       0.87500000000000000       0.12500000000000000     
  0.75000000000000000       0.87500000000000000       0.12500000000000000     
   0.0000000000000000        0.0000000000000000       0.25000000000000000     
  0.25000000000000000        0.0000000000000000       0.25000000000000000     
  0.50000000000000000        0.0000000000000000       0.25000000000000000     
  0.75000000000000000        0.0000000000000000       0.25000000000000000     
  0.12500000000000000       0.12500000000000000       0.25000000000000000     
  0.37500000000000000       0.12500000000000000       0.25000000000000000     
  0.62500000000000000       0.12500000000000000       0.25000000000000000     
  0.87500000000000000       0.12500000000000000       0.25000000000000000     
   0.0000000000000000       0.25000000000000000       0.25000000000000000     
  0.25000000000000000       0.25000000000000000       0.25000000000000000     
  0.50000000000000000       0.25000000000000000       0.25000000000000000     
  0.75000000000000000       0.25000000000000000       0.25000000000000000     
  0.12500000000000000       0.37500000000000000       0.25000000000000000     
  0.37500000000000000       0.37500000000000000       0.25000000000000000     
  0.62500000000000000       0.37500000000000000       0.25000000000000000     
  0.87500000000000000       0.37500000000000000       0.25000000000000000     
   0.0000000000000000       0.50000000000000000       0.25000000000000000     
  0.25000000000000000       0.50000000000000000       0.25000000000000000     
  0.50000000000000000       0.50000000000000000       0.25000000000000000     
  0.75000000000000000       0.50000000000000000       0.25000000000000000     
  0.12500000000000000       0.62500000000000000       0.25000000000000000     
  0.37500000000000000       0.62500000000000000       0.25000000000000000     
  0.62500000000000000       0.62500000000000000       0.25000000000000000     
  0.87500000000000000       0.62500000000000000       0.25000000000000000     
   0.0000000000000000       0.75000000000000000       0.25000000000000000     
  0.25000000000000000       0.75000000000000000       0.25000000000000000     
  0.50000000000000000       0.75000000000000000       0.25000000000000000     
  0.75000000000000000       0.75000000000000000       0.25000000000000000     
  0.12500000000000000       0.87500000000000000       0.25000000000000000     
  0.37500000000000000       0.87500000000000000       0.25000000000000000     
  0.62500000000000000       0.87500000000000000       0.25000000000000000     
  0.87500000000000000       0.87500000000000000       0.25000000000000000     
  0.12500000000000000        0.0000000000000000       0.37500000000000000     
  0.37500000000000000        0.0000000000000000       0.37500000000000000     
  0.62500000000000000        0.0000000000000000       0.37500000000000000     
  0.87500000000000000        0.0000000000000000       0.37500000000000000     
   0.0000000000000000       0.12500000000000000       0.37500000000000000     
  0.25000000000000000       0.12500000000000000       0.37500000000000000     
  0.50000000000000000       0.12500000000000000       0.37500000000000000     
  0.75000000000000000       0.12500000000000000       0.37500000000000000     
  0.12500000000000000       0.25000000000000000       0.37500000000000000     
  0.37500000000000000       0.25000000000000000       0.37500000000000000     
  0.62500000000000000       0.25000000000000000       0.37500000000000000     
  0.87500000000000000       0.25000000000000000       0.37500000000000000     
   0.0000000000000000       0.37500000000000000       0.37500000000000000     
  0.25000000000000000       0.37500000000000000       0.37500000000000000     
  0.50000000000000000       0.37500000000000000       0.37500000000000000     
  0.75000000000000000       0.37500000000000000       0.37500000000000000     
  0.12500000000000000       0.50000000000000000       0.37500000000000000     
  0.37500000000000000       0.50000000000000000       0.37500000000000000     
  0.62500000000000000       0.50000000000000000       0.37500000000000000     
  0.87500000000000000       0.50000000000000000       0.37500000000000000     
   0.0000000000000000       0.62500000000000000       0.37500000000000000     
  0.25000000000000000       0.62500000000000000       0.37500000000000000     
  0.50000000000000000       0.62500000000000000       0.37500000000000000     
  0.75000000000000000       0.62500000000000000       0.37500000000000000     
  0.12500000000000000       0.75000000000000000       0.37500000000000000     
  0.37500000000000000       0.75000000000000000       0.37500000000000000     
  0.62500000000000000       0.75000000000000000       0.37500000000000000     
  0.87500000000000000       0.75000000000000000       0.37500000000000000     
   0.0000000000000000       0.87500000000000000       0.37500000000000000     
  0.25000000000000000       0.87500000000000000       0.37500000000000000     
  0.50000000000000000       0.87500000000000000       0.37500000000000000     
  0.75000000000000000       0.87500000000000000       0.37500000000000000     
   0.0000000000000000        0.0000000000000000       0.50000000000000000     
  0.25000000000000000        0.0000000000000000       0.50000000000000000     
  0.50000000000000000        0.0000000000000000       0.50000000000000000     
  0.75000000000000000        0.0000000000000000       0.50000000000000000     
  0.12500000000000000       0.12500000000000000       0.50000000000000000     
  0.37500000000000000       0.12500000000000000       0.50000000000000000     
  0.62500000000000000       0.12500000000000000       0.50000000000000000     
  0.87500000000000000       0.12500000000000000       0.50000000000000000     
   0.0000000000000000       0.25000000000000000       0.50000000000000000     
  0.25000000000000000       0.25000000000000000       0.50000000000000000     
  0.50000000000000000       0.25000000000000000       0.50000000000000000     
  0.75000000000000000       0.25000000000000000       0.50000000000000000     
  0.12500000000000000       0.37500000000000000       0.50000000000000000     
  0.37500000000000000       0.37500000000000000       0.50000000000000000     
  0.62500000000000000       0.37500000000000000       0.50000000000000000     
  0.87500000000000000       0.37500000000000000       0.50000000000000000     
   0.0000000000000000       0.50000000000000000       0.50000000000000000     
  0.25000000000000000       0.50000000000000000       0.50000000000000000     
  0.50000000000000000       0.50000000000000000       0.50000000000000000     
  0.75000000000000000       0.50000000000000000       0.50000000000000000     
  0.12500000000000000       0.62500000000000000       0.50000000000000000     
  0.37500000000000000       0.62500000000000000       0.50000000000000000     
  0.62500000000000000       0.62500000000000000       0.50000000000000000     
  0.87500000000000000       0.62500000000000000       0.50000000000000000     
   0.0000000000000000       0.75000000000000000       0.50000000000000000     
  0.25000000000000000       0.75000000000000000       0.50000000000000000     
  0.50000000000000000       0.75000000000000000       0.50000000000000000     
  0.75000000000000000       0.75000000000000000       0.50000000000000000     
  0.12500000000000000       0.87500000000000000       0.50000000000000000     
  0.37500000000000000       0.87500000000000000       0.50000000000000000     
  0.62500000000000000       0.87500000000000000       0.50000000000000000     
  0.87500000000000000       0.87500000000000000       0.50000000000000000     
  0.12500000000000000        0.0000000000000000       0.62500000000000000     
  0.37500000000000000        0.0000000000000000       0.62500000000000000     
  0.62500000000000000        0.0000000000000000       0.62500000000000000     
  0.87500000000000000        0.0000000000000000       0.62500000000000000     
   0.0000000000000000       0.12500000000000000       0.62500000000000000     
  0.25000000000000000       0.12500000000000000       0.62500000000000000     
  0.50000000000000000       0.12500000000000000       0.62500000000000000     
  0.75000000000000000       0.12500000000000000       0.62500000000000000     
  0.12500000000000000       0.25000000000000000       0.62500000000000000     
  0.37500000000000000       0.25000000000000000       0.62500000000000000     
  0.62500000000000000       0.25000000000000000       0.62500000000000000     
  0.87500000000000000       0.25000000000000000       0.62500000000000000     
   0.0000000000000000       0.37500000000000000       0.62500000000000000     
  0.25000000000000000       0.37500000000000000       0.62500000000000000     
  0.50000000000000000       0.37500000000000000       0.62500000000000000     
  0.75000000000000000       0.37500000000000000       0.62500000000000000     
  0.12500000000000000       0.50000000000000000       0.62500000000000000     
  0.37500000000000000       0.50000000000000000       0.62500000000000000     
  0.62500000000000000       0.50000000000000000       0.62500000000000000     
  0.87500000000000000       0.50000000000000000       0.62500000000000000     
   0.0000000000000000       0.62500000000000000       0.62500000000000000     
  0.25000000000000000       0.62500000000000000       0.62500000000000000     
  0.50000000000000000       0.62500000000000000       0.62500000000000000     
  0.75000000000000000       0.62500000000000000       0.62500000000000000     
  0.12500000000000000       0.75000000000000000       0.62500000000000000     
  0.37500000000000000       0.75000000000000000       0.62500000000000000     
  0.62500000000000000       0.75000000000000000       0.62500000000000000     
  0.87500000000000000       0.75000000000000000       0.62500000000000000     
   0.0000000000000000       0.87500000000000000       0.62500000000000000     
  0.25000000000000000       0.87500000000000000       0.62500000000000000     
  0.50000000000000000       0.87500000000000000       0.62500000000000000     
  0.75000000000000000       0.87500000000000000       0.62500000000000000     
   0.0000000000000000        0.0000000000000000       0.75000000000000000     
  0.25000000000000000        0.0000000000000000       0.75000000000000000     
  0.50000000000000000        0.0000000000000000       0.75000000000000000     
  0.75000000000000000        0.0000000000000000       0.75000000000000000     
  0.12500000000000000       0.12500000000000000       0.75000000000000000     
  0.37500000000000000       0.12500000000000000       0.75000000000000000     
  0.62500000000000000       0.12500000000000000       0.75000000000000000     
  0.87500000000000000       0.12500000000000000       0.75000000000000000     
   0.0000000000000000       0.25000000000000000       0.75000000000000000     
  0.25000000000000000       0.25000000000000000       0.75000000000000000     
  0.50000000000000000       0.25000000000000000       0.75000000000000000     
  0.75000000000000000       0.25000000000000000       0.75000000000000000     
  0.12500000000000000       0.37500000000000000       0.75000000000000000     
  0.37500000000000000       0.37500000000000000       0.75000000000000000     
  0.62500000000000000       0.37500000000000000       0.75000000000000000     
  0.87500000000000000       0.37500000000000000       0.75000000000000000     
   0.0000000000000000       0.50000000000000000       0.75000000000000000     
  0.25000000000000000       0.50000000000000000       0.75000000000000000     
  0.50000000000000000       0.50000000000000000       0.75000000000000000     
  0.75000000000000000       0.50000000000000000       0.75000000000000000     
  0.12500000000000000       0.62500000000000000       0.75000000000000000     
  0.37500000000000000       0.62500000000000000       0.75000000000000000     
  0.62500000000000000       0.62500000000000000       0.75000000000000000     
  0.87500000000000000       0.62500000000000000       0.75000000000000000     
   0.0000000000000000       0.75000000000000000       0.75000000000000000     
  0.25000000000000000       0.75000000000000000       0.75000000000000000     
  0.50000000000000000       0.75000000000000000       0.75000000000000000     
  0.75000000000000000       0.75000000000000000       0.75000000000000000     
  0.12500000000000000       0.87500000000000000       0.75000000000000000     
  0.37500000000000000       0.87500000000000000       0.75000000000000000     
  0.62500000000000000       0.87500000000000000       0.75000000000000000     
  0.87500000000000000       0.87500000000000000       0.75000000000000000     
  0.12500000000000000        0.0000000000000000       0.87500000000000000     
  0.37500000000000000        0.0000000000000000       0.87500000000000000     
  0.62500000000000000        0.0000000000000000       0.87500000000000000     
  0.87500000000000000        0.0000000000000000       0.87500000000000000     
   0.0000000000000000       0.12500000000000000       0.87500000000000000     
  0.25000000000000000       0.12500000000000000       0.87500000000000000     
  0.50000000000000000       0.12500000000000000       0.87500000000000000     
  0.75000000000000000       0.12500000000000000       0.87500000000000000     
  0.12500000000000000       0.25000000000000000       0.87500000000000000     
  0.37500000000000000       0.25000000000000000       0.87500000000000000     
  0.62500000000000000       0.25000000000000000       0.87500000000000000     
  0.87500000000000000       0.25000000000000000       0.87500000000000000     
   0.0000000000000000       0.37500000000000000       0.87500000000000000     
  0.25000000000000000       0.37500000000000000       0.87500000000000000     
  0.50000000000000000       0.37500000000000000       0.87500000000000000     
  0.75000000000000000       0.37500000000000000       0.87500000000000000     
  0.12500000000000000       0.50000000000000000       0.87500000000000000     
  0.37500000000000000       0.50000000000000000       0.87500000000000000     
  0.62500000000000000       0.50000000000000000       0.87500000000000000     
  0.87500000000000000       0.50000000000000000       0.87500000000000000     
   0.0000000000000000       0.62500000000000000       0.87500000000000000     
  0.25000000000000000       0.62500000000000000       0.87500000000000000     
  0.50000000000000000       0.62500000000000000       0.87500000000000000     
  0.75000000000000000       0.62500000000000000       0.87500000000000000     
  0.12500000000000000       0.75000000000000000       0.87500000000000000     
  0.37500000000000000       0.75000000000000000       0.87500000000000000     
  0.62500000000000000       0.75000000000000000       0.87500000000000000     
  0.87500000000000000       0.75000000000000000       0.87500000000000000     
   0.0000000000000000       0.87500000000000000       0.87500000000000000     
  0.25000000000000000       0.87500000000000000       0.87500000000000000     
  0.50000000000000000       0.87500000000000000       0.87500000000000000     
  0.75000000000000000       0.87500000000000000       0.87500000000000000     
  0.12500000000000000        0.0000000000000000        0.0000000000000000     
  0.37500000000000000        0.0000000000000000        0.0000000000000000     
  0.62500000000000000        0.0000000000000000        0.0000000000000000     
  0.87500000000000000        0.0000000000000000        0.0000000000000000     
   0.0000000000000000       0.12500000000000000        0.0000000000000000     
  0.25000000000000000       0.12500000000000000        0.0000000000000000     
  0.50000000000000000       0.12500000000000000        0.0000000000000000     
  0.75000000000000000       0.12500000000000000        0.0000000000000000     
  0.12500000000000000       0.25000000000000000        0.0000000000000000     
  0.37500000000000000       0.25000000000000000        0.0000000000000000     
  0.62500000000000000       0.25000000000000000        0.0000000000000000     
  0.87500000000000000       0.25000000000000000        0.0000000000000000     
   0.0000000000000000       0.37500000000000000        0.0000000000000000     
  0.25000000000000000       0.37500000000000000        0.0000000000000000     
  0.50000000000000000       0.37500000000000000        0.0000000000000000     
  0.75000000000000000       0.37500000000000000        0.0000000000000000     
  0.12500000000000000       0.50000000000000000        0.0000000000000000     
  0.37500000000000000       0.50000000000000000        0.0000000000000000     
  0.62500000000000000       0.50000000000000000        0.0000000000000000     
  0.87500000000000000       0.50000000000000000        0.0000000000000000     
   0.0000000000000000       0.62500000000000000        0.0000000000000000     
  0.25000000000000000       0.62500000000000000        0.0000000000000000     
  0.50000000000000000       0.62500000000000000        0.0000000000000000     
  0.75000000000000000       0.62500000000000000        0.0000000000000000     
  0.12500000000000000       0.75000000000000000        0.0000000000000000     
  0.37500000000000000       0.75000000000000000        0.0000000000000000     
  0.62500000000000000       0.75000000000000000        0.0000000000000000     
  0.87500000000000000       0.75000000000000000        0.0000000000000000     
   0.0000000000000000       0.87500000000000000        0.0000000000000000     
  0.25000000000000000       0.87500000000000000        0.0000000000000000     
  0.50000000000000000       0.87500000000000000        0.0000000000000000     
  0.75000000000000000       0.87500000000000000        0.0000000000000000     
   0.0000000000000000        0.0000000000000000       0.12500000000000000     
  0.25000000000000000        0.0000000000000000       0.12500000000000000     
  0.50000000000000000        0.0000000000000000       0.12500000000000000     
  0.75000000000000000        0.0000000000000000       0.12500000000000000     
  0.12500000000000000       0.12500000000000000       0.12500000000000000     
  0.37500000000000000       0.12500000000000000       0.12500000000000000     
  0.62500000000000000       0.12500000000000000       0.12500000000000000     
  0.87500000000000000       0.12500000000000000       0.12500000000000000     
   0.0000000000000000       0.25000000000000000       0.12500000000000000     
  0.25000000000000000       0.25000000000000000       0.12500000000000000     
  0.50000000000000000       0.25000000000000000       0.12500000000000000     
  0.75000000000000000       0.25000000000000000       0.12500000000000000     
  0.12500000000000000       0.37500000000000000       0.12500000000000000     
  0.37500000000000000       0.37500000000000000       0.12500000000000000     
  0.62500000000000000       0.37500000000000000       0.12500000000000000     
  0.87500000000000000       0.37500000000000000       0.12500000000000000     
   0.0000000000000000       0.50000000000000000       0.12500000000000000     
  0.25000000000000000       0.50000000000000000       0.12500000000000000     
  0.50000000000000000       0.50000000000000000       0.12500000000000000     
  0.75000000000000000       0.50000000000000000       0.12500000000000000     
  0.12500000000000000       0.62500000000000000       0.12500000000000000     
  0.37500000000000000       0.62500000000000000       0.12500000000000000     
  0.62500000000000000       0.62500000000000000       0.12500000000000000     
  0.87500000000000000       0.62500000000000000       0.12500000000000000     
   0.0000000000000000       0.75000000000000000       0.12500000000000000     
  0.25000000000000000       0.75000000000000000       0.12500000000000000     
  0.50000000000000000       0.75000000000000000       0.12500000000000000     
  0.75000000000000000       0.75000000000000000       0.12500000000000000     
  0.12500000000000000       0.87500000000000000       0.12500000000000000     
  0.37500000000000000       0.87500000000000000       0.12500000000000000     
  0.62500000000000000       0.87500000000000000       0.12500000000000000     
  0.87500000000000000       0.87500000000000000       0.12500000000000000     
  0.12500000000000000        0.0000000000000000       0.25000000000000000     
  0.37500000000000000        0.0000000000000000       0.25000000000000000     
  0.62500000000000000        0.0000000000000000       0.25000000000000000     
  0.87500000000000000        0.0000000000000000       0.25000000000000000     
   0.0000000000000000       0.12500000000000000       0.25000000000000000     
  0.25000000000000000       0.12500000000000000       0.25000000000000000     
  0.50000000000000000       0.12500000000000000       0.25000000000000000     
  0.75000000000000000       0.12500000000000000       0.25000000000000000     
  0.12500000000000000       0.25000000000000000       0.25000000000000000     
  0.37500000000000000       0.25000000000000000       0.25000000000000000     
  0.62500000000000000       0.25000000000000000       0.25000000000000000     
  0.87500000000000000       0.25000000000000000       0.25000000000000000     
   0.0000000000000000       0.37500000000000000       0.25000000000000000     
  0.25000000000000000       0.37500000000000000       0.25000000000000000     
  0.50000000000000000       0.37500000000000000       0.25000000000000000     
  0.75000000000000000       0.37500000000000000       0.25000000000000000     
  0.12500000000000000       0.50000000000000000       0.25000000000000000     
  0.37500000000000000       0.50000000000000000       0.25000000000000000     
  0.62500000000000000       0.50000000000000000       0.25000000000000000     
  0.87500000000000000       0.50000000000000000       0.25000000000000000     
   0.0000000000000000       0.62500000000000000       0.25000000000000000     
  0.25000000000000000       0.62500000000000000       0.25000000000000000     
  0.50000000000000000       0.62500000000000000       0.25000000000000000     
  0.75000000000000000       0.62500000000000000       0.25000000000000000     
  0.12500000000000000       0.75000000000000000       0.25000000000000000     
  0.37500000000000000       0.75000000000000000       0.25000000000000000     
  0.62500000000000000       0.75000000000000000       0.25000000000000000     
  0.87500000000000000       0.75000000000000000       0.25000000000000000     
   0.0000000000000000       0.87500000000000000       0.25000000000000000     
  0.25000000000000000       0.87500000000000000       0.25000000000000000     
  0.50000000000000000       0.87500000000000000       0.25000000000000000     
  0.75000000000000000       0.87500000000000000       0.25000000000000000     
   0.0000000000000000        0.0000000000000000       0.37500000000000000     
  0.25000000000000000        0.0000000000000000       0.37500000000000000     
  0.50000000000000000        0.0000000000000000       0.37500000000000000     
  0.75000000000000000        0.0000000000000000       0.37500000000000000     
  0.12500000000000000       0.12500000000000000       0.37500000000000000     
  0.37500000000000000       0.12500000000000000       0.37500000000000000     
  0.62500000000000000       0.12500000000000000       0.37500000000000000     
  0.87500000000000000       0.12500000000000000       0.37500000000000000     
   0.0000000000000000       0.25000000000000000       0.37500000000000000     
  0.25000000000000000       0.25000000000000000       0.37500000000000000     
  0.50000000000000000       0.25000000000000000       0.37500000000000000     
  0.75000000000000000       0.25000000000000000       0.37500000000000000     
  0.12500000000000000       0.37500000000000000       0.37500000000000000     
  0.37500000000000000       0.37500000000000000       0.37500000000000000     
  0.62500000000000000       0.37500000000000000       0.37500000000000000     
  0.87500000000000000       0.37500000000000000       0.37500000000000000     
   0.0000000000000000       0.50000000000000000       0.37500000000000000     
  0.25000000000000000       0.50000000000000000       0.37500000000000000     
  0.50000000000000000       0.50000000000000000       0.37500000000000000     
  0.75000000000000000       0.50000000000000000       0.37500000000000000     
  0.12500000000000000       0.62500000000000000       0.37500000000000000     
  0.37500000000000000       0.62500000000000000       0.37500000000000000     
  0.62500000000000000       0.62500000000000000       0.37500000000000000     
  0.87500000000000000       0.62500000000000000       0.37500000000000000     
   0.0000000000000000       0.75000000000000000       0.37500000000000000     